Minimize
  obj: x0 + x1 + x2 + x3 + x4 + x5

Subject To
  c0: x0 + x3 = 7
  c1: x0 + x2 = 14
  c2: x4 = 17
  c3: x1 + x2 = 29
  c4: x5 = 17
  c5: x0 + x3 + x4 = 24
  c6: x0 + x1 + x3 + x5 = 42

Bounds
  x0 >= 0
  x1 >= 0
  x2 >= 0
  x3 >= 0
  x4 >= 0
  x5 >= 0

Generals
  x0 x1 x2 x3 x4 x5

End
